(set-info :smt-lib-version 2.6)
(set-logic QF_NRA)
(set-info :source |
Generated by: Ali K. Uncu, Matthew England, and James H. Davenport
Generated on: 2022-01-06

Generator: SUMCracker-ProveInequality function by Manuel Kauers ("https://www3.risc.jku.at/research/combinat/software/ergosum/RISC/SumCracker.html")
Translated to SMT-Lib by Maple SMTLIB package.

Application: CAD calls of SUMCracker-ProveInequality to prove RHS of Levin's Inequality (without any modification to the statement) in
S. Gerhold and M. Kauers, A Procedure for Proving Special Function Inequalities Involving a Discrete Parameter.
ISSAC '05: Proceedings of the 2005 international symposium on Symbolic and algebraic computationJuly 2005 Pages 156-162.
(https://dl.acm.org/doi/10.1145/1073884.1073907)

All denominators in the original CAD call got cleared by introducing disjunctions with sign conditions:
a/b == c/d --> a d==b c && b<>0 && d<>0
a/b >= c  --> a >=b c && b >0  or ( a <= b c && b < 0)
|)
(set-info :license "https://creativecommons.org/licenses/by/4.0/")
(set-info :status sat)
(set-info :category "industrial")

(set-logic QF_NRA)
(declare-fun V1 () Real)
(declare-fun V2 () Real)
(declare-fun x () Real)
(assert (and (<= 0 V1) (<= 0 (+ 1 V1)) (<= 0 (+ 2 V1)) (<= 0 (+ 3 V1)) (< 0 x) (<= x 1) (or (and (or (and (< 0 (* (+ 1 V1) V2)) (< 0 (* V2 2))) (and (< (* (+ 1 V1) V2) 0) (< (* V2 2) 0))) (<= (* (* V2 (+ (* x V1 V2) 1)) 2) (* (+ 1 V1) V2 (+ (* (* (+ (- 1) x) (+ (- 1) x)) V1) (* V2 2))))) (and (or (and (< 0 (* (+ 1 V1) V2)) (< (* V2 2) 0)) (and (< (* (+ 1 V1) V2) 0) (< 0 (* V2 2)))) (<= (* (+ 1 V1) V2 (+ (* (* (+ (- 1) x) (+ (- 1) x)) V1) (* V2 2))) (* (* V2 (+ (* x V1 V2) 1)) 2)))) (or (and (or (and (< 0 (* x (+ 2 V1) V2)) (< 0 (* (* x V2) 2))) (and (< (* x (+ 2 V1) V2) 0) (< (* (* x V2) 2) 0))) (<= (* (* x V2 (+ 1 (* (* x x) (+ 1 V1) V2))) 2) (* x (+ 2 V1) (+ 1 V1 (* (* x x) (+ 1 V1)) (* (* x (+ 1 V1 (* V2 (- 1)))) (- 2))) V2))) (and (or (and (< 0 (* x (+ 2 V1) V2)) (< (* (* x V2) 2) 0)) (and (< (* x (+ 2 V1) V2) 0) (< 0 (* (* x V2) 2)))) (<= (* x (+ 2 V1) (+ 1 V1 (* (* x x) (+ 1 V1)) (* (* x (+ 1 V1 (* V2 (- 1)))) (- 2))) V2) (* (* x V2 (+ 1 (* (* x x) (+ 1 V1) V2))) 2)))) (or (and (or (and (< 0 (* (* x x) (+ 3 V1) V2)) (< 0 (* (* (* x x) V2) 2))) (and (< (* (* x x) (+ 3 V1) V2) 0) (< (* (* (* x x) V2) 2) 0))) (<= (* (* (* x x) V2 (+ 1 (* (* x x x) (+ 2 V1) V2))) 2) (* (* x x) (+ 3 V1) V2 (+ 2 V1 (* (* x (+ 2 V1)) (- 2)) (* (* x x) (+ 2 V1 (* V2 2))))))) (and (or (and (< 0 (* (* x x) (+ 3 V1) V2)) (< (* (* (* x x) V2) 2) 0)) (and (< (* (* x x) (+ 3 V1) V2) 0) (< 0 (* (* (* x x) V2) 2)))) (<= (* (* x x) (+ 3 V1) V2 (+ 2 V1 (* (* x (+ 2 V1)) (- 2)) (* (* x x) (+ 2 V1 (* V2 2))))) (* (* (* x x) V2 (+ 1 (* (* x x x) (+ 2 V1) V2))) 2)))) (or (and (or (and (< 0 (* (* x x x) (+ 4 V1) V2)) (< 0 (* (* (* x x x) V2) 2))) (and (< (* (* x x x) (+ 4 V1) V2) 0) (< (* (* (* x x x) V2) 2) 0))) (< (* (* x x x) (+ 4 V1) V2 (+ 3 V1 (* (* x (+ 3 V1)) (- 2)) (* (* x x) (+ 3 V1)) (* (* (* x x x) V2) 2))) (* (* (* x x x) V2 (+ 1 (* (* x x x x) (+ 3 V1) V2))) 2))) (and (or (and (< 0 (* (* x x x) (+ 4 V1) V2)) (< (* (* (* x x x) V2) 2) 0)) (and (< (* (* x x x) (+ 4 V1) V2) 0) (< 0 (* (* (* x x x) V2) 2)))) (< (* (* (* x x x) V2 (+ 1 (* (* x x x x) (+ 3 V1) V2))) 2) (* (* x x x) (+ 4 V1) V2 (+ 3 V1 (* (* x (+ 3 V1)) (- 2)) (* (* x x) (+ 3 V1)) (* (* (* x x x) V2) 2))))))))
(check-sat)
(exit)
















